Problem:    
Rows:       105
Columns:    45 (34 integer, 34 binary)
Non-zeros:  302
Status:     INTEGER OPTIMAL
Objective:  value = 32.31518 (MINimum)

   No.   Row name        Activity     Lower bound   Upper bound
------ ------------    ------------- ------------- -------------
     1 r.5                   32.3152             0               
     2 r.6                  -461.538      -493.853               
     3 r.7                   532.315             0               
     4 r.8                  -473.815      -496.558               
     5 r.9                   532.315             0               
     6 r.10                 -467.685      -474.447               
     7 r.11                  32.3152             0               
     8 r.12                  12.0334      -482.471               
     9 r.13                  32.3152             0               
    10 r.14                 -4.18422      -486.343               
    11 r.15                  532.315             0               
    12 r.16                 -477.257       -489.29               
    13 r.17                  32.3152             0               
    14 r.18                  6.76228      -489.053               
    15 r.19                  532.315             0               
    16 r.20                 -467.685       -493.87               
    17 r.21                  32.3152             0               
    18 r.22                    1.721      -499.086               
    19 r.23                  532.315             0               
    20 r.24                 -498.279      -498.279               
    21 r.25                        1             1             = 
    22 r.26                        1             1             = 
    23 r.27                        1             1             = 
    24 r.28                        1             1             = 
    25 r.29                        1             1             = 
    26 r.30                  493.853       25.5529               
    27 r.31                 -493.853      -493.853               
    28 r.32                  485.849       17.5286               
    29 r.33                 -485.849      -496.558               
    30 r.34                  457.354       13.6569               
    31 r.35                 -457.354      -493.853               
    32 r.36                  496.558       10.7097               
    33 r.37                 -496.558      -496.558               
    34 r.38                    468.3       10.9465               
    35 r.39                   -468.3      -493.853               
    36 r.40                   6.1304        6.1304               
    37 r.41                  -6.1304      -496.558               
    38 r.42                 -463.259      -489.662               
    39 r.43                 -475.536      -486.246               
    40 r.44                 -463.259      -489.662               
    41 r.45                 -475.536      -486.246               
    42 r.46                   6.1467        6.1467               
    43 r.47                  -6.1467      -474.447               
    44 r.48                  14.1514        3.4417               
    45 r.49                 -14.1514      -482.471               
    46 r.50                  463.501       13.6569               
    47 r.51                 -463.501      -474.447               
    48 r.52                  10.7097       10.7097               
    49 r.53                 -10.7097      -482.471               
    50 r.54                  474.447       10.9465               
    51 r.55                 -474.447      -474.447               
    52 r.56                  20.2818        6.1304               
    53 r.57                 -20.2818      -482.471               
    54 r.58                 -469.406      -470.256               
    55 r.59                  10.3124      -472.159               
    56 r.60                 -469.406      -470.256               
    57 r.61                  10.3124      -472.159               
    58 r.62                  42.6461        6.1467               
    59 r.63                 -42.6461      -486.343               
    60 r.64                   3.4417        3.4417               
    61 r.65                  -3.4417       -489.29               
    62 r.66                  36.4994       25.5529               
    63 r.67                 -36.4994      -486.343               
    64 r.68                   489.29       17.5286               
    65 r.69                  -489.29       -489.29               
    66 r.70                  10.9465       10.9465               
    67 r.71                 -10.9465      -486.343               
    68 r.72                   9.5721        6.1304               
    69 r.73                  -9.5721       -489.29               
    70 r.74                 -5.90522      -482.152               
    71 r.75                 -478.978      -478.978               
    72 r.76                 -5.90522      -482.152               
    73 r.77                 -478.978      -478.978               
    74 r.78                  31.6996        6.1467               
    75 r.79                 -31.6996      -489.053               
    76 r.80                   493.87        3.4417               
    77 r.81                  -493.87       -493.87               
    78 r.82                  25.5529       25.5529               
    79 r.83                 -25.5529      -489.053               
    80 r.84                  479.718       17.5286               
    81 r.85                 -479.718       -493.87               
    82 r.86                  489.053       13.6569               
    83 r.87                 -489.053      -489.053               
    84 r.88                  490.428       10.7097               
    85 r.89                 -490.428       -493.87               
    86 r.90                  5.04128      -484.862               
    87 r.91                 -469.406      -483.557               
    88 r.92                  5.04128      -484.862               
    89 r.93                 -469.406      -483.557               
    90 r.94                 -463.259      -489.662               
    91 r.95                 -475.536      -486.246               
    92 r.96                 -463.259      -489.662               
    93 r.97                 -475.536      -486.246               
    94 r.98                 -469.406      -470.256               
    95 r.99                  10.3124      -472.159               
    96 r.100                -469.406      -470.256               
    97 r.101                 10.3124      -472.159               
    98 r.102                -5.90522      -482.152               
    99 r.103                -478.978      -478.978               
   100 r.104                -5.90522      -482.152               
   101 r.105                -478.978      -478.978               
   102 r.106                 5.04128      -484.862               
   103 r.107                -469.406      -483.557               
   104 r.108                 5.04128      -484.862               
   105 r.109                -469.406      -483.557               

   No. Column name       Activity     Lower bound   Upper bound
------ ------------    ------------- ------------- -------------
     1 tt                    32.3152             0               
     2 s_1_1        *              0             0             1 
     3 t_1_1                 493.853             0               
     4 s_2_1        *              1             0             1 
     5 t_2_1                  6.1304             0               
     6 s_1_2        *              1             0             1 
     7 t_1_2                       0             0               
     8 s_2_2        *              0             0             1 
     9 t_2_2                 20.2818             0               
    10 s_1_3        *              0             0             1 
    11 t_1_3                 36.4994             0               
    12 s_2_3        *              1             0             1 
    13 t_2_3                  9.5721             0               
    14 s_1_4        *              0             0             1 
    15 t_1_4                 25.5529             0               
    16 s_2_4        *              1             0             1 
    17 t_2_4                       0             0               
    18 s_1_5        *              0             0             1 
    19 t_1_5                 30.5942             0               
    20 s_2_5        *              1             0             1 
    21 t_2_5                 30.5942             0               
    22 u_1_1_2      *              0             0             1 
    23 u_2_1_2      *              1             0             1 
    24 u_1_1_3      *              0             0             1 
    25 u_2_1_3      *              1             0             1 
    26 u_1_1_4      *              0             0             1 
    27 u_2_1_4      *              0             0             1 
    28 u_1_2_1      *              1             0             1 
    29 u_2_2_1      *              0             0             1 
    30 u_1_2_3      *              1             0             1 
    31 u_2_2_3      *              0             0             1 
    32 u_1_2_4      *              1             0             1 
    33 u_2_2_4      *              0             0             1 
    34 u_1_3_1      *              1             0             1 
    35 u_2_3_1      *              0             0             1 
    36 u_1_3_2      *              0             0             1 
    37 u_2_3_2      *              1             0             1 
    38 u_1_3_4      *              0             0             1 
    39 u_2_3_4      *              0             0             1 
    40 u_1_4_1      *              1             0             1 
    41 u_2_4_1      *              1             0             1 
    42 u_1_4_2      *              0             0             1 
    43 u_2_4_2      *              1             0             1 
    44 u_1_4_3      *              1             0             1 
    45 u_2_4_3      *              1             0             1 

Integer feasibility conditions:

KKT.PE: max.abs.err = 1.14e-13 on row 20
        max.rel.err = 9.83e-17 on row 20
        High quality

KKT.PB: max.abs.err = 5.68e-14 on row 20
        max.rel.err = 2.00e-16 on row 60
        High quality

End of output
